FILENAME:   /home/mcs001/s132664/testsets/IP/miplib2017/chromaticindex32-8.mps.gz
SETTINGS:   settings_final_nopeek_norelabel_extend_norestarts
TIMELIMIT:  7200
OUTPUTNAME: final_miplib_symretope_if_extended_generating_set_cpx_v802__settings_final_nopeek_norelabel_extend_norestarts__3__
BINNAME:    bin/sbcs.linux.x86_64.gnu.opt.cpx
BASENAME:   chromaticindex32-8.mps.gz
SEED:       3
@01 /home/mcs001/s132664/testsets/IP/miplib2017/chromaticindex32-8.mps.gz ===========
@02 chromaticindex32-8.mps.gz
@03 1686663687
SCIP version 8.0.2 [precision: 8 byte] [memory: block] [mode: optimized] [LP solver: CPLEX 20.1.0.0] [GitHash: 5f0473c]
Copyright (C) 2002-2022 Konrad-Zuse-Zentrum fuer Informationstechnik Berlin (ZIB)

Symretope propagation methods - (c) Jasper van Doornmalen, Christopher Hojny.
[GitHash: 2fd0484]

reading parameter file <../settings/settings_final_nopeek_norelabel_extend_norestarts.set> ...

Changed settings:
limits/time = 7200
limits/restarts = 0
misc/usesymmetry = 1
randomization/randomseedshift = 3
constraints/orbisack/sepafreq = -1
constraints/symresack/sepafreq = -1
propagating/symmetry/addsymresacks = TRUE
propagating/symmetry/detectsubgroups = FALSE
propagating/symmetry/relabelsymretopes = 0
propagating/symmetry/extendgenerators = TRUE
propagating/symmetry/ofsymcomptiming = 0
constraints/symretope/sepafreq = -1
constraints/symretope/peek = FALSE


solving problem ...

original problem has 2304 variables (2304 bin, 0 int, 0 impl, 0 cont) and 2111 constraints
presolving:
(round 1, exhaustive) 0 del vars, 0 del conss, 0 add conss, 0 chg bounds, 0 chg sides, 0 chg coeffs, 2111 upgd conss, 0 impls, 2111 clqs
   (0.0s) probing: 51/2304 (2.2%) - 0 fixings, 0 aggregations, 0 implications, 0 bound changes
   (0.0s) probing aborted: 50/50 successive totally useless probings
   (0.0s) symmetry computation started: requiring (bin +, int +, cont +), (fixed: bin -, int -, cont -)
   (0.1s) symmetry computation finished: 4 generators found (max: 1500, log10 of symmetry group size: 1.7)
(round 2, exhaustive) 0 del vars, 0 del conss, 10 add conss, 0 chg bounds, 0 chg sides, 0 chg coeffs, 2111 upgd conss, 0 impls, 2111 clqs
presolving (3 rounds: 3 fast, 3 medium, 3 exhaustive):
 0 deleted vars, 0 deleted constraints, 10 added constraints, 0 tightened bounds, 0 added holes, 0 changed sides, 0 changed coefficients
 0 implications, 2111 cliques
presolved problem has 2304 variables (2304 bin, 0 int, 0 impl, 0 cont) and 2121 constraints
   2111 constraints of type <setppc>
      8 constraints of type <orbisack>
      2 constraints of type <symretope>
transformed objective value is always integral (scale: 1)
Presolving Time: 0.06

 time | node  | left  |LP iter|LP it/n|mem/heur|mdpt |vars |cons |rows |cuts |sepa|confs|strbr|  dualbound   | primalbound  |  gap   | compl. 
p 0.1s|     1 |     0 |     0 |     - | vbounds|   0 |2304 |2129 |2123 |   0 |  0 |   8 |   0 | 0.000000e+00 | 4.000000e+00 |    Inf | unknown
  0.2s|     1 |     0 |  2139 |     - |    26M |   0 |2304 |2129 |2123 |   0 |  0 |   8 |   0 | 3.000000e+00 | 4.000000e+00 |  33.33%| unknown
  0.5s|     1 |     0 |  2378 |     - |    30M |   0 |2304 |2300 |2125 |   2 |  1 |   9 |   0 | 3.000000e+00 | 4.000000e+00 |  33.33%| unknown
  0.6s|     1 |     0 |  2644 |     - |    31M |   0 |2304 |2302 |2128 |   5 |  2 |  11 |   0 | 3.000000e+00 | 4.000000e+00 |  33.33%| unknown
  0.7s|     1 |     0 |  2909 |     - |    32M |   0 |2304 |2303 |2130 |   7 |  3 |  12 |   0 | 3.000000e+00 | 4.000000e+00 |  33.33%| unknown
  0.8s|     1 |     0 |  3208 |     - |    33M |   0 |2304 |2304 |2133 |  10 |  4 |  13 |   0 | 3.000000e+00 | 4.000000e+00 |  33.33%| unknown
  0.8s|     1 |     0 |  3572 |     - |    35M |   0 |2304 |2305 |2136 |  13 |  5 |  14 |   0 | 3.000000e+00 | 4.000000e+00 |  33.33%| unknown
  0.9s|     1 |     0 |  3830 |     - |    37M |   0 |2304 |2306 |2139 |  16 |  6 |  15 |   0 | 3.000000e+00 | 4.000000e+00 |  33.33%| unknown
  1.0s|     1 |     0 |  4044 |     - |    37M |   0 |2304 |2307 |2142 |  19 |  7 |  16 |   0 | 3.000000e+00 | 4.000000e+00 |  33.33%| unknown
  1.1s|     1 |     0 |  4341 |     - |    38M |   0 |2304 |2308 |2144 |  21 |  8 |  17 |   0 | 3.000000e+00 | 4.000000e+00 |  33.33%| unknown
  1.1s|     1 |     0 |  4585 |     - |    41M |   0 |2304 |2309 |2147 |  24 |  9 |  18 |   0 | 3.000000e+00 | 4.000000e+00 |  33.33%| unknown
  1.2s|     1 |     0 |  4857 |     - |    42M |   0 |2304 |2310 |2149 |  26 | 10 |  19 |   0 | 3.000000e+00 | 4.000000e+00 |  33.33%| unknown
  1.3s|     1 |     0 |  5197 |     - |    43M |   0 |2304 |2311 |2138 |  28 | 11 |  20 |   0 | 3.000000e+00 | 4.000000e+00 |  33.33%| unknown
  1.4s|     1 |     0 |  5490 |     - |    44M |   0 |2304 |2312 |2141 |  31 | 12 |  21 |   0 | 3.000000e+00 | 4.000000e+00 |  33.33%| unknown
  1.4s|     1 |     0 |  5771 |     - |    44M |   0 |2304 |2313 |2142 |  32 | 13 |  22 |   0 | 3.000000e+00 | 4.000000e+00 |  33.33%| unknown
 time | node  | left  |LP iter|LP it/n|mem/heur|mdpt |vars |cons |rows |cuts |sepa|confs|strbr|  dualbound   | primalbound  |  gap   | compl. 
  1.5s|     1 |     0 |  6017 |     - |    44M |   0 |2304 |2314 |2144 |  34 | 14 |  23 |   0 | 3.000000e+00 | 4.000000e+00 |  33.33%| unknown
  1.5s|     1 |     0 |  6177 |     - |    44M |   0 |2304 |2315 |2146 |  36 | 15 |  24 |   0 | 3.000000e+00 | 4.000000e+00 |  33.33%| unknown
  1.6s|     1 |     0 |  6393 |     - |    45M |   0 |2304 |2316 |2148 |  38 | 16 |  25 |   0 | 3.000000e+00 | 4.000000e+00 |  33.33%| unknown
  2.4s|     1 |     2 |  7644 |     - |    45M |   0 |2304 |2325 |2148 |  38 | 16 |  34 |  12 | 3.000000e+00 | 4.000000e+00 |  33.33%| unknown

SCIP Status        : problem is solved [optimal solution found]
Solving Time (sec) : 5.38
Solving Nodes      : 90
Primal Bound       : +4.00000000000000e+00 (2 solutions)
Dual Bound         : +4.00000000000000e+00
Gap                : 0.00 %
SCIP Status        : problem is solved [optimal solution found]
Total Time         :       5.39
  solving          :       5.38
  presolving       :       0.06 (included in solving)
  reading          :       0.01
  copying          :       0.11 (14 #copies) (minimal 0.01, maximal 0.01, average 0.01)
Original Problem   :
  Problem name     : chromaticindex32-8
  Variables        : 2304 (2304 binary, 0 integer, 0 implicit integer, 0 continuous)
  Constraints      : 2111 initial, 2111 maximal
  Objective        : minimize, 4 non-zeros (abs.min = 1, abs.max = 1)
Presolved Problem  :
  Problem name     : t_chromaticindex32-8
  Variables        : 2304 (2304 binary, 0 integer, 0 implicit integer, 0 continuous)
  Constraints      : 2121 initial, 2633 maximal
  Objective        : minimize, 4 non-zeros (abs.min = 1, abs.max = 1)
  Nonzeros         : 21240 constraint, 8459 clique table
Presolvers         :   ExecTime  SetupTime  Calls  FixedVars   AggrVars   ChgTypes  ChgBounds   AddHoles    DelCons    AddCons   ChgSides   ChgCoefs
  boundshift       :       0.00       0.00      0          0          0          0          0          0          0          0          0          0
  convertinttobin  :       0.00       0.00      0          0          0          0          0          0          0          0          0          0
  domcol           :       0.00       0.00      2          0          0          0          0          0          0          0          0          0
  dualagg          :       0.00       0.00      0          0          0          0          0          0          0          0          0          0
  dualcomp         :       0.00       0.00      0          0          0          0          0          0          0          0          0          0
  dualinfer        :       0.00       0.00      0          0          0          0          0          0          0          0          0          0
  dualsparsify     :       0.00       0.00      1          0          0          0          0          0          0          0          0          0
  gateextraction   :       0.00       0.00      0          0          0          0          0          0          0          0          0          0
  implics          :       0.00       0.00      3          0          0          0          0          0          0          0          0          0
  inttobinary      :       0.00       0.00      0          0          0          0          0          0          0          0          0          0
  qpkktref         :       0.00       0.00      0          0          0          0          0          0          0          0          0          0
  redvub           :       0.00       0.00      0          0          0          0          0          0          0          0          0          0
  sparsify         :       0.00       0.00      1          0          0          0          0          0          0          0          0          0
  stuffing         :       0.00       0.00      0          0          0          0          0          0          0          0          0          0
  trivial          :       0.00       0.00      3          0          0          0          0          0          0          0          0          0
  tworowbnd        :       0.00       0.00      0          0          0          0          0          0          0          0          0          0
  dualfix          :       0.00       0.00      3          0          0          0          0          0          0          0          0          0
  genvbounds       :       0.00       0.00      0          0          0          0          0          0          0          0          0          0
  probing          :       0.01       0.00      1          0          0          0          0          0          0          0          0          0
  pseudoobj        :       0.00       0.00      0          0          0          0          0          0          0          0          0          0
  symmetry         :       0.02       0.00      1          0          0          0          0          0          0         10          0          0
  vbounds          :       0.00       0.00      1          0          0          0          0          0          0          0          0          0
  knapsack         :       0.00       0.00      0          0          0          0          0          0          0          0          0          0
  setppc           :       0.01       0.00      6          0          0          0          0          0          0          0          0          0
  linear           :       0.01       0.00      2          0          0          0          0          0          0          0          0          0
  orbisack         :       0.00       0.00      1          0          0          0          0          0          0          0          0          0
  symretope        :       0.00       0.00      1          0          0          0          0          0          0          0          0          0
  logicor          :       0.00       0.00      0          0          0          0          0          0          0          0          0          0
  benders          :       0.00       0.00      0          0          0          0          0          0          0          0          0          0
  components       :       0.00       0.00      1          0          0          0          0          0          0          0          0          0
  root node        :          -          -      -        602          -          -        602          -          -          -          -          -
Constraints        :     Number  MaxNumber  #Separate #Propagate    #EnfoLP    #EnfoRelax  #EnfoPS    #Check   #ResProp    Cutoffs    DomReds       Cuts    Applied      Conss   Children
  benderslp        :          0          0          0          0         64          0          0         10          0          0          0          0          0          0          0
  integral         :          0          0          0          0         64          0          0         10          0          0          0          0          0          0        128
  knapsack         :          0+        10          0       4350          0          0          0          0         15          3         21          0          0          0          0
  setppc           :       2111+      2122         16       8068          0          0          0          5       2668        103       7575          1          0          0          0
  linear           :          0+       187         16       5943          0          0          0          0         19         12         24          0          0          0          0
  orbisack         :          8          8          0         77          0          0          0          2        168          1         33          0          0          0          0
  symretope        :          2          2          0        176          0          0          0          2          0          1          0          0          0          0          0
  logicor          :          0+       313         16        789          0          0          0          0        186         10         63          2          0          0          0
  benders          :          0          0          0          0          0          0          0          3          0          0          0          0          0          0          0
  countsols        :          0          0          0          0          0          0          0          3          0          0          0          0          0          0          0
  components       :          0          0          0          0          0          0          0          0          0          0          0          0          0          0          0
Constraint Timings :  TotalTime  SetupTime   Separate  Propagate     EnfoLP     EnfoPS     EnfoRelax   Check    ResProp    SB-Prop
  benderslp        :       0.00       0.00       0.00       0.00       0.00       0.00       0.00       0.00       0.00       0.00
  integral         :       0.64       0.00       0.00       0.00       0.64       0.00       0.00       0.00       0.00       0.00
  knapsack         :       0.00       0.00       0.00       0.00       0.00       0.00       0.00       0.00       0.00       0.00
  setppc           :       0.07       0.00       0.00       0.07       0.00       0.00       0.00       0.00       0.00       0.00
  linear           :       0.01       0.00       0.00       0.00       0.00       0.00       0.00       0.00       0.00       0.00
  orbisack         :       0.00       0.00       0.00       0.00       0.00       0.00       0.00       0.00       0.00       0.00
  symretope        :       0.00       0.00       0.00       0.00       0.00       0.00       0.00       0.00       0.00       0.00
  logicor          :       0.00       0.00       0.00       0.00       0.00       0.00       0.00       0.00       0.00       0.00
  benders          :       0.00       0.00       0.00       0.00       0.00       0.00       0.00       0.00       0.00       0.00
  countsols        :       0.00       0.00       0.00       0.00       0.00       0.00       0.00       0.00       0.00       0.00
  components       :       0.00       0.00       0.00       0.00       0.00       0.00       0.00       0.00       0.00       0.00
Propagators        : #Propagate   #ResProp    Cutoffs    DomReds
  dualfix          :          2          0          0          0
  genvbounds       :          0          0          0          0
  nlobbt           :          0          0          0          0
  obbt             :          0          0          0          0
  probing          :          0          0          0          0
  pseudoobj        :        439          0          0          3
  redcost          :         18          0          0          0
  rootredcost      :          0          0          0          0
  symmetry         :          0          0          0          0
  vbounds          :       3463          0          0          0
Propagator Timings :  TotalTime  SetupTime   Presolve  Propagate    ResProp    SB-Prop
  dualfix          :       0.00       0.00       0.00       0.00       0.00       0.00
  genvbounds       :       0.00       0.00       0.00       0.00       0.00       0.00
  nlobbt           :       0.00       0.00       0.00       0.00       0.00       0.00
  obbt             :       0.00       0.00       0.00       0.00       0.00       0.00
  probing          :       0.01       0.00       0.01       0.00       0.00       0.00
  pseudoobj        :       0.00       0.00       0.00       0.00       0.00       0.00
  redcost          :       0.00       0.00       0.00       0.00       0.00       0.00
  rootredcost      :       0.00       0.00       0.00       0.00       0.00       0.00
  symmetry         :       0.02       0.00       0.02       0.00       0.00       0.00
  vbounds          :       0.00       0.00       0.00       0.00       0.00       0.00
Orbital fixing     :
  vars fixed to 0  :          0
  vars fixed to 1  :          0
Conflict Analysis  :       Time      Calls    Success    DomReds  Conflicts   Literals    Reconvs ReconvLits   Dualrays   Nonzeros   LP Iters   (pool size: [10000,10000])
  propagation      :       0.00        118        116          -        271        8.6         29        9.2          -          -          -
  infeasible LP    :       0.00          7          7          -         10        4.6          0        0.0          7        6.3          0
  bound exceed. LP :       0.01         14         14          -         43       14.0          4        9.5         14       21.5         20
  strong branching :       0.00          0          0          -          0        0.0          0        0.0          -          -          0
  pseudo solution  :       0.00          0          0          -          0        0.0          0        0.0          -          -          -
  applied globally :       0.00          -          -          0        329        8.5          -          -         21          -          -
  applied locally  :          -          -          -          0          0        0.0          -          -          0          -          -
Separators         :   ExecTime  SetupTime      Calls  RootCalls    Cutoffs    DomReds  FoundCuts ViaPoolAdd  DirectAdd    Applied ViaPoolApp  DirectApp      Conss
  cut pool         :       0.05          -         55         31          -          -       2633       2606          -          -          -          -          -    (maximal pool size:       2633)
  aggregation      :       0.03       0.00         28         16          0          0          0          0          0          0          0          0          0
  > cmir           :          -          -          -          -          -          -          -          0          0          0          0          0          -
  > flowcover      :          -          -          -          -          -          -          -          0          0          0          0          0          -
  > knapsackcover  :          -          -          -          -          -          -          -          0          0          0          0          0          -
  cgmip            :       0.00       0.00          0          0          0          0          0          0          0          0          0          0          0
  clique           :       0.17       0.00         16         16          0          0          0          0          0          0          0          0          0
  closecuts        :       0.00       0.00          0          0          0          0          0          0          0          0          0          0          0
  convexproj       :       0.00       0.00          0          0          0          0          0          0          0          0          0          0          0
  disjunctive      :       0.00       0.00          0          0          0          0          0          0          0          0          0          0          0
  eccuts           :       0.00       0.00          0          0          0          0          0          0          0          0          0          0          0
  gauge            :       0.00       0.00          0          0          0          0          0          0          0          0          0          0          0
  gomory           :       0.38       0.00         22         10          0          0       2609       2522         20         23         22          1          0
  > gomorymi       :          -          -          -          -          -          -          -        604         10          2          2          0          -
  > strongcg       :          -          -          -          -          -          -          -       1918         10         21         20          1          -
  impliedbounds    :       0.00       0.00         28         16          0          0          2          2          0          2          2          0          0
  interminor       :       0.00       0.00          0          0          0          0          0          0          0          0          0          0          0
  intobj           :       0.00       0.00          0          0          0          0          0          0          0          0          0          0          0
  mcf              :       0.00       0.00          1          1          0          0          0          0          0          0          0          0          0
  minor            :       0.00       0.00          0          0          0          0          0          0          0          0          0          0          0
  mixing           :       0.00       0.00          0          0          0          0          0          0          0          0          0          0          0
  oddcycle         :       0.00       0.00          0          0          0          0          0          0          0          0          0          0          0
  rapidlearning    :       0.77       0.00         13          1          0        502          0          0          0          0          0          0        201
  rlt              :       0.00       0.00         10         10          0          0          0          0          0          0          0          0          0
  zerohalf         :       0.23       0.00         28         16          0          0         63         82         21         59         48         11          0
Cutselectors       :   ExecTime  SetupTime      Calls  RootCalls   Selected     Forced   Filtered  RootSelec   RootForc   RootFilt 
  hybrid           :       0.00       0.00         28         16         84          0       2566         38          0       1747
Pricers            :   ExecTime  SetupTime      Calls       Vars
  problem variables:       0.00          -          0          0
Branching Rules    :   ExecTime  SetupTime   BranchLP  BranchExt   BranchPS    Cutoffs    DomReds       Cuts      Conss   Children
  allfullstrong    :       0.00       0.00          0          0          0          0          0          0          0          0
  cloud            :       0.00       0.00          0          0          0          0          0          0          0          0
  distribution     :       0.00       0.00          0          0          0          0          0          0          0          0
  fullstrong       :       0.00       0.00          0          0          0          0          0          0          0          0
  inference        :       0.00       0.00          0          0          0          0          0          0          0          0
  leastinf         :       0.00       0.00          0          0          0          0          0          0          0          0
  lookahead        :       0.00       0.00          0          0          0          0          0          0          0          0
  mostinf          :       0.00       0.00          0          0          0          0          0          0          0          0
  multaggr         :       0.00       0.00          0          0          0          0          0          0          0          0
  nodereopt        :       0.00       0.00          0          0          0          0          0          0          0          0
  pscost           :       0.00       0.00          0          0          0          0          0          0          0          0
  random           :       0.00       0.00          0          0          0          0          0          0          0          0
  relpscost        :       0.64       0.00         64          0          0          0          0          0          0        128
  vanillafullstrong:       0.00       0.00          0          0          0          0          0          0          0          0
Primal Heuristics  :   ExecTime  SetupTime      Calls      Found       Best
  LP solutions     :       0.00          -          -          0          0
  relax solutions  :       0.00          -          -          0          0
  pseudo solutions :       0.00          -          -          0          0
  strong branching :       0.00          -          -          0          0
  actconsdiving    :       0.00       0.00          0          0          0
  adaptivediving   :       0.05       0.00          8          0          0
  alns             :       0.02       0.00          1          0          0
  bound            :       0.00       0.00          0          0          0
  clique           :       0.01       0.00          1          0          0
  coefdiving       :       0.00       0.00          0          0          0
  completesol      :       0.00       0.00          0          0          0
  conflictdiving   :       0.06       0.00          4          0          0
  crossover        :       0.00       0.00          0          0          0
  dins             :       0.00       0.00          0          0          0
  distributiondivin:       0.07       0.00          4          0          0
  dps              :       0.00       0.00          0          0          0
  dualval          :       0.00       0.00          0          0          0
  farkasdiving     :       0.00       0.00          0          0          0
  feaspump         :       0.12       0.00          1          1          0
  fixandinfer      :       0.00       0.00          0          0          0
  fracdiving       :       0.05       0.00          4          0          0
  gins             :       0.00       0.00          0          0          0
  guideddiving     :       0.06       0.00          4          0          0
  indicator        :       0.00       0.00          0          0          0
  intdiving        :       0.00       0.00          0          0          0
  intshifting      :       0.00       0.00          0          0          0
  linesearchdiving :       0.02       0.00          4          0          0
  localbranching   :       0.00       0.00          0          0          0
  locks            :       0.00       0.00          1          0          0
  lpface           :       0.00       0.00          0          0          0
  mpec             :       0.00       0.00          0          0          0
  multistart       :       0.00       0.00          0          0          0
  mutation         :       0.00       0.00          0          0          0
  nlpdiving        :       0.00       0.00          0          0          0
  objpscostdiving  :       0.68       0.00          3          0          0
  octane           :       0.00       0.00          0          0          0
  ofins            :       0.00       0.00          0          0          0
  oneopt           :       0.00       0.00          1          0          0
  padm             :       0.00       0.00          0          0          0
  proximity        :       0.00       0.00          0          0          0
  pscostdiving     :       0.10       0.00          5          0          0
  randrounding     :       0.04       0.00         17          0          0
  rens             :       0.00       0.00          0          0          0
  reoptsols        :       0.00       0.00          0          0          0
  repair           :       0.00       0.00          0          0          0
  rins             :       0.00       0.00          0          0          0
  rootsoldiving    :       0.12       0.00          1          0          0
  rounding         :       0.02       0.00        102          0          0
  shiftandpropagate:       0.00       0.00          0          0          0
  shifting         :       0.01       0.00         34          0          0
  simplerounding   :       0.00       0.00        104          0          0
  subnlp           :       0.00       0.00          0          0          0
  trivial          :       0.00       0.00          2          0          0
  trivialnegation  :       0.00       0.00          0          0          0
  trustregion      :       0.00       0.00          0          0          0
  trysol           :       0.00       0.00          0          0          0
  twoopt           :       0.00       0.00          0          0          0
  undercover       :       0.00       0.00          0          0          0
  vbounds          :       0.02       0.00          1          1          1
  veclendiving     :       0.01       0.00          4          0          0
  zeroobj          :       0.00       0.00          0          0          0
  zirounding       :       0.01       0.00         64          0          0
  other solutions  :          -          -          -          0          -
LP                 :       Time      Calls Iterations  Iter/call   Iter/sec  Time-0-It Calls-0-It    ItLimit
  primal LP        :       0.09          7          0       0.00       0.00       0.09          7
  dual LP          :       1.32        123      14127     114.85   10734.84       0.00          0
  lex dual LP      :       0.00          0          0       0.00          -
  barrier LP       :       0.00          0          0       0.00          -       0.00          0
  resolve instable :       0.00          0          0       0.00          -
  diving/probing LP:       1.07        179       8601      48.05    8041.02
  strong branching :       0.61         12       6955     579.58   11473.75          -          -          3
    (at root node) :          -         12       6955     579.58          -
  conflict analysis:       0.00          2         20      10.00          -
B&B Tree           :
  number of runs   :          1
  nodes            :         90 (64 internal, 26 leaves)
  feasible leaves  :          0
  infeas. leaves   :         14
  objective leaves :         12
  nodes (total)    :         90 (64 internal, 26 leaves)
  nodes left       :          0
  max depth        :         14
  max depth (total):         14
  backtracks       :         50 (55.6%)
  early backtracks :          0 (0.0%)
  nodes exc. ref.  :          0 (0.0%)
  delayed cutoffs  :         39
  repropagations   :         35 (1293 domain reductions, 4 cutoffs)
  avg switch length:       3.98
  switching time   :       0.09
Root Node          :
  First LP value   : +3.00000000000000e+00
  First LP Iters   :       2139 (16175.75 Iter/sec)
  First LP Time    :       0.13
  Final Dual Bound : +3.00000000000000e+00
  Final Root Iters :       6393
  Root LP Estimate : +3.03554960281555e+00
Solution           :
  Solutions found  :          2 (1 improvements)
  First Solution   : +4.00000000000000e+00   (in run 1, after 1 nodes, 0.11 seconds, depth 489, found by <vbounds>)
  Gap First Sol.   :   infinite
  Gap Last Sol.    :   infinite
  Primal Bound     : +4.00000000000000e+00   (in run 1, after 1 nodes, 0.11 seconds, depth 489, found by <vbounds>)
  Dual Bound       : +4.00000000000000e+00
  Gap              :       0.00 %
Integrals          :      Total       Avg%
  primal-dual      :     152.65      28.38
  primal-ref       :          -          - (not evaluated)
  dual-ref         :          -          - (not evaluated)
written solution information to file <results/final_miplib_symretope_if_extended_generating_set_cpx_v802__settings_final_nopeek_norelabel_extend_norestarts__3__chromaticindex32-8.mps.gz.sol>
@04 1686663692
